c Reduced graph for r24_0 generated by Cyril Grelier
p edge 269 3284
e 1 2
e 1 3
e 1 6
e 1 9
e 1 10
e 1 11
e 1 17
e 1 20
e 1 21
e 1 22
e 1 23
e 1 28
e 1 30
e 1 38
e 1 40
e 1 41
e 1 42
e 1 56
e 1 65
e 1 66
e 1 73
e 1 85
e 1 91
e 1 99
e 1 100
e 1 101
e 1 123
e 1 131
e 1 159
e 1 167
e 1 239
e 2 4
e 2 7
e 2 9
e 2 10
e 2 11
e 2 18
e 2 20
e 2 21
e 2 22
e 2 24
e 2 29
e 2 31
e 2 39
e 2 40
e 2 41
e 2 43
e 2 57
e 2 65
e 2 66
e 2 86
e 2 92
e 2 99
e 2 100
e 2 101
e 2 106
e 2 124
e 2 131
e 2 139
e 2 159
e 2 240
e 3 4
e 3 5
e 3 6
e 3 12
e 3 13
e 3 14
e 3 17
e 3 23
e 3 25
e 3 26
e 3 27
e 3 28
e 3 30
e 3 38
e 3 42
e 3 48
e 3 49
e 3 56
e 3 73
e 3 75
e 3 76
e 3 85
e 3 91
e 3 112
e 3 113
e 3 123
e 3 167
e 3 173
e 3 239
e 4 5
e 4 7
e 4 12
e 4 13
e 4 14
e 4 18
e 4 24
e 4 25
e 4 26
e 4 27
e 4 29
e 4 31
e 4 39
e 4 43
e 4 48
e 4 49
e 4 57
e 4 75
e 4 76
e 4 86
e 4 92
e 4 106
e 4 112
e 4 113
e 4 124
e 4 139
e 4 173
e 4 240
e 5 8
e 5 12
e 5 13
e 5 14
e 5 19
e 5 25
e 5 26
e 5 27
e 5 32
e 5 44
e 5 48
e 5 49
e 5 67
e 5 74
e 5 75
e 5 76
e 5 87
e 5 93
e 5 95
e 5 107
e 5 108
e 5 112
e 5 113
e 5 125
e 5 140
e 5 168
e 5 173
e 5 241
e 6 7
e 6 8
e 6 15
e 6 16
e 6 17
e 6 23
e 6 28
e 6 30
e 6 33
e 6 34
e 6 35
e 6 38
e 6 42
e 6 56
e 6 58
e 6 59
e 6 73
e 6 85
e 6 88
e 6 89
e 6 90
e 6 91
e 6 119
e 6 120
e 6 123
e 6 167
e 6 182
e 6 239
e 7 8
e 7 15
e 7 16
e 7 18
e 7 24
e 7 29
e 7 31
e 7 33
e 7 34
e 7 35
e 7 39
e 7 43
e 7 57
e 7 58
e 7 59
e 7 86
e 7 88
e 7 89
e 7 90
e 7 92
e 7 106
e 7 119
e 7 120
e 7 124
e 7 139
e 7 182
e 7 240
e 8 15
e 8 16
e 8 19
e 8 32
e 8 33
e 8 34
e 8 35
e 8 44
e 8 58
e 8 59
e 8 67
e 8 74
e 8 87
e 8 88
e 8 89
e 8 90
e 8 93
e 8 95
e 8 107
e 8 108
e 8 119
e 8 120
e 8 125
e 8 140
e 8 168
e 8 182
e 8 241
e 9 10
e 9 11
e 9 12
e 9 15
e 9 20
e 9 21
e 9 22
e 9 36
e 9 40
e 9 41
e 9 45
e 9 50
e 9 53
e 9 62
e 9 65
e 9 66
e 9 68
e 9 83
e 9 99
e 9 100
e 9 101
e 9 110
e 9 121
e 9 127
e 9 131
e 9 151
e 9 159
e 9 174
e 10 11
e 10 13
e 10 16
e 10 20
e 10 21
e 10 22
e 10 37
e 10 40
e 10 41
e 10 46
e 10 51
e 10 54
e 10 63
e 10 65
e 10 66
e 10 69
e 10 99
e 10 100
e 10 101
e 10 102
e 10 111
e 10 117
e 10 128
e 10 131
e 10 134
e 10 152
e 10 159
e 11 14
e 11 20
e 11 21
e 11 22
e 11 40
e 11 41
e 11 47
e 11 52
e 11 55
e 11 64
e 11 65
e 11 66
e 11 70
e 11 84
e 11 99
e 11 100
e 11 101
e 11 103
e 11 118
e 11 122
e 11 131
e 11 135
e 11 136
e 11 159
e 11 175
e 11 198
e 12 13
e 12 14
e 12 15
e 12 25
e 12 26
e 12 27
e 12 36
e 12 45
e 12 48
e 12 49
e 12 50
e 12 53
e 12 62
e 12 68
e 12 75
e 12 76
e 12 83
e 12 110
e 12 112
e 12 113
e 12 121
e 12 127
e 12 151
e 12 173
e 12 174
e 13 14
e 13 16
e 13 25
e 13 26
e 13 27
e 13 37
e 13 46
e 13 48
e 13 49
e 13 51
e 13 54
e 13 63
e 13 69
e 13 75
e 13 76
e 13 102
e 13 111
e 13 112
e 13 113
e 13 117
e 13 128
e 13 134
e 13 152
e 13 173
e 14 25
e 14 26
e 14 27
e 14 47
e 14 48
e 14 49
e 14 52
e 14 55
e 14 64
e 14 70
e 14 75
e 14 76
e 14 84
e 14 103
e 14 112
e 14 113
e 14 118
e 14 122
e 14 135
e 14 136
e 14 173
e 14 175
e 14 198
e 15 16
e 15 33
e 15 34
e 15 35
e 15 36
e 15 45
e 15 50
e 15 53
e 15 58
e 15 59
e 15 62
e 15 68
e 15 83
e 15 88
e 15 89
e 15 90
e 15 110
e 15 119
e 15 120
e 15 121
e 15 127
e 15 151
e 15 174
e 15 182
e 16 33
e 16 34
e 16 35
e 16 37
e 16 46
e 16 51
e 16 54
e 16 58
e 16 59
e 16 63
e 16 69
e 16 88
e 16 89
e 16 90
e 16 102
e 16 111
e 16 117
e 16 119
e 16 120
e 16 128
e 16 134
e 16 152
e 16 182
e 17 18
e 17 19
e 17 23
e 17 28
e 17 30
e 17 36
e 17 37
e 17 38
e 17 42
e 17 56
e 17 60
e 17 61
e 17 73
e 17 85
e 17 91
e 17 94
e 17 123
e 17 126
e 17 153
e 17 154
e 17 155
e 17 156
e 17 167
e 17 186
e 17 214
e 17 239
e 18 19
e 18 24
e 18 29
e 18 31
e 18 36
e 18 37
e 18 39
e 18 43
e 18 57
e 18 60
e 18 61
e 18 86
e 18 92
e 18 94
e 18 106
e 18 124
e 18 126
e 18 139
e 18 153
e 18 154
e 18 155
e 18 156
e 18 186
e 18 214
e 18 240
e 19 32
e 19 36
e 19 37
e 19 44
e 19 60
e 19 61
e 19 67
e 19 74
e 19 87
e 19 93
e 19 94
e 19 95
e 19 107
e 19 108
e 19 125
e 19 126
e 19 140
e 19 153
e 19 154
e 19 155
e 19 156
e 19 168
e 19 186
e 19 214
e 19 241
e 20 21
e 20 22
e 20 25
e 20 33
e 20 40
e 20 41
e 20 60
e 20 65
e 20 66
e 20 71
e 20 77
e 20 80
e 20 96
e 20 99
e 20 100
e 20 101
e 20 104
e 20 131
e 20 132
e 20 147
e 20 157
e 20 159
e 20 162
e 20 164
e 21 22
e 21 26
e 21 34
e 21 40
e 21 41
e 21 65
e 21 66
e 21 78
e 21 81
e 21 97
e 21 99
e 21 100
e 21 101
e 21 105
e 21 131
e 21 148
e 21 150
e 21 158
e 21 159
e 21 163
e 21 165
e 21 202
e 21 223
e 22 27
e 22 35
e 22 40
e 22 41
e 22 61
e 22 65
e 22 66
e 22 72
e 22 79
e 22 82
e 22 98
e 22 99
e 22 100
e 22 101
e 22 116
e 22 131
e 22 133
e 22 149
e 22 159
e 22 166
e 22 185
e 22 224
e 23 24
e 23 28
e 23 30
e 23 38
e 23 42
e 23 45
e 23 46
e 23 47
e 23 56
e 23 71
e 23 72
e 23 73
e 23 85
e 23 91
e 23 109
e 23 123
e 23 137
e 23 138
e 23 167
e 23 169
e 23 170
e 23 225
e 23 226
e 23 239
e 24 29
e 24 31
e 24 39
e 24 43
e 24 45
e 24 46
e 24 47
e 24 57
e 24 71
e 24 72
e 24 86
e 24 92
e 24 106
e 24 109
e 24 124
e 24 137
e 24 138
e 24 139
e 24 169
e 24 170
e 24 225
e 24 226
e 24 240
e 25 26
e 25 27
e 25 33
e 25 48
e 25 49
e 25 60
e 25 71
e 25 75
e 25 76
e 25 77
e 25 80
e 25 96
e 25 104
e 25 112
e 25 113
e 25 132
e 25 147
e 25 157
e 25 162
e 25 164
e 25 173
e 26 27
e 26 34
e 26 48
e 26 49
e 26 75
e 26 76
e 26 78
e 26 81
e 26 97
e 26 105
e 26 112
e 26 113
e 26 148
e 26 150
e 26 158
e 26 163
e 26 165
e 26 173
e 26 202
e 26 223
e 27 35
e 27 48
e 27 49
e 27 61
e 27 72
e 27 75
e 27 76
e 27 79
e 27 82
e 27 98
e 27 112
e 27 113
e 27 116
e 27 133
e 27 149
e 27 166
e 27 173
e 27 185
e 27 224
e 28 29
e 28 30
e 28 38
e 28 42
e 28 50
e 28 51
e 28 52
e 28 56
e 28 73
e 28 77
e 28 78
e 28 79
e 28 85
e 28 91
e 28 114
e 28 123
e 28 141
e 28 142
e 28 167
e 28 176
e 28 177
e 28 203
e 28 239
e 29 31
e 29 39
e 29 43
e 29 50
e 29 51
e 29 52
e 29 57
e 29 77
e 29 78
e 29 79
e 29 86
e 29 92
e 29 106
e 29 114
e 29 124
e 29 139
e 29 141
e 29 142
e 29 176
e 29 177
e 29 203
e 29 240
e 30 31
e 30 32
e 30 38
e 30 42
e 30 53
e 30 54
e 30 55
e 30 56
e 30 73
e 30 80
e 30 81
e 30 82
e 30 85
e 30 91
e 30 115
e 30 123
e 30 143
e 30 144
e 30 167
e 30 178
e 30 229
e 30 239
e 31 32
e 31 39
e 31 43
e 31 53
e 31 54
e 31 55
e 31 57
e 31 80
e 31 81
e 31 82
e 31 86
e 31 92
e 31 106
e 31 115
e 31 124
e 31 139
e 31 143
e 31 144
e 31 178
e 31 229
e 31 240
e 32 44
e 32 53
e 32 54
e 32 55
e 32 67
e 32 74
e 32 80
e 32 81
e 32 82
e 32 87
e 32 93
e 32 95
e 32 107
e 32 108
e 32 115
e 32 125
e 32 140
e 32 143
e 32 144
e 32 168
e 32 178
e 32 229
e 32 241
e 33 34
e 33 35
e 33 58
e 33 59
e 33 60
e 33 71
e 33 77
e 33 80
e 33 88
e 33 89
e 33 90
e 33 96
e 33 104
e 33 119
e 33 120
e 33 132
e 33 147
e 33 157
e 33 162
e 33 164
e 33 182
e 34 35
e 34 58
e 34 59
e 34 78
e 34 81
e 34 88
e 34 89
e 34 90
e 34 97
e 34 105
e 34 119
e 34 120
e 34 148
e 34 150
e 34 158
e 34 163
e 34 165
e 34 182
e 34 202
e 34 223
e 35 58
e 35 59
e 35 61
e 35 72
e 35 79
e 35 82
e 35 88
e 35 89
e 35 90
e 35 98
e 35 116
e 35 119
e 35 120
e 35 133
e 35 149
e 35 166
e 35 182
e 35 185
e 35 224
e 36 37
e 36 45
e 36 50
e 36 53
e 36 60
e 36 61
e 36 62
e 36 68
e 36 83
e 36 94
e 36 110
e 36 121
e 36 126
e 36 127
e 36 151
e 36 153
e 36 154
e 36 155
e 36 156
e 36 174
e 36 186
e 36 214
e 37 46
e 37 51
e 37 54
e 37 60
e 37 61
e 37 63
e 37 69
e 37 94
e 37 102
e 37 111
e 37 117
e 37 126
e 37 128
e 37 134
e 37 152
e 37 153
e 37 154
e 37 155
e 37 156
e 37 186
e 37 214
e 38 39
e 38 42
e 38 56
e 38 62
e 38 63
e 38 64
e 38 73
e 38 85
e 38 91
e 38 96
e 38 97
e 38 98
e 38 123
e 38 129
e 38 130
e 38 167
e 38 189
e 38 190
e 38 236
e 38 237
e 38 239
e 39 43
e 39 57
e 39 62
e 39 63
e 39 64
e 39 86
e 39 92
e 39 96
e 39 97
e 39 98
e 39 106
e 39 124
e 39 129
e 39 130
e 39 139
e 39 189
e 39 190
e 39 236
e 39 237
e 39 240
e 40 41
e 40 48
e 40 58
e 40 65
e 40 66
e 40 94
e 40 99
e 40 100
e 40 101
e 40 115
e 40 129
e 40 131
e 40 145
e 40 159
e 40 171
e 40 183
e 40 187
e 40 196
e 40 212
e 40 228
e 41 49
e 41 59
e 41 65
e 41 66
e 41 99
e 41 100
e 41 101
e 41 109
e 41 114
e 41 130
e 41 131
e 41 146
e 41 159
e 41 172
e 41 181
e 41 184
e 41 188
e 41 197
e 41 213
e 42 43
e 42 44
e 42 56
e 42 68
e 42 69
e 42 70
e 42 73
e 42 85
e 42 91
e 42 104
e 42 105
e 42 123
e 42 160
e 42 161
e 42 167
e 42 193
e 42 194
e 42 195
e 42 220
e 42 239
e 43 44
e 43 57
e 43 68
e 43 69
e 43 70
e 43 86
e 43 92
e 43 104
e 43 105
e 43 106
e 43 124
e 43 139
e 43 160
e 43 161
e 43 193
e 43 194
e 43 195
e 43 220
e 43 240
e 44 67
e 44 68
e 44 69
e 44 70
e 44 74
e 44 87
e 44 93
e 44 95
e 44 104
e 44 105
e 44 107
e 44 108
e 44 125
e 44 140
e 44 160
e 44 161
e 44 168
e 44 193
e 44 194
e 44 195
e 44 220
e 44 241
e 45 46
e 45 47
e 45 50
e 45 53
e 45 62
e 45 68
e 45 71
e 45 72
e 45 83
e 45 109
e 45 110
e 45 121
e 45 127
e 45 137
e 45 138
e 45 151
e 45 169
e 45 170
e 45 174
e 45 225
e 45 226
e 46 47
e 46 51
e 46 54
e 46 63
e 46 69
e 46 71
e 46 72
e 46 102
e 46 109
e 46 111
e 46 117
e 46 128
e 46 134
e 46 137
e 46 138
e 46 152
e 46 169
e 46 170
e 46 225
e 46 226
e 47 52
e 47 55
e 47 64
e 47 70
e 47 71
e 47 72
e 47 84
e 47 103
e 47 109
e 47 118
e 47 122
e 47 135
e 47 136
e 47 137
e 47 138
e 47 169
e 47 170
e 47 175
e 47 198
e 47 225
e 47 226
e 48 49
e 48 58
e 48 75
e 48 76
e 48 94
e 48 112
e 48 113
e 48 115
e 48 129
e 48 145
e 48 171
e 48 173
e 48 183
e 48 187
e 48 196
e 48 212
e 48 228
e 49 59
e 49 75
e 49 76
e 49 109
e 49 112
e 49 113
e 49 114
e 49 130
e 49 146
e 49 172
e 49 173
e 49 181
e 49 184
e 49 188
e 49 197
e 49 213
e 50 51
e 50 52
e 50 53
e 50 62
e 50 68
e 50 77
e 50 78
e 50 79
e 50 83
e 50 110
e 50 114
e 50 121
e 50 127
e 50 141
e 50 142
e 50 151
e 50 174
e 50 176
e 50 177
e 50 203
e 51 52
e 51 54
e 51 63
e 51 69
e 51 77
e 51 78
e 51 79
e 51 102
e 51 111
e 51 114
e 51 117
e 51 128
e 51 134
e 51 141
e 51 142
e 51 152
e 51 176
e 51 177
e 51 203
e 52 55
e 52 64
e 52 70
e 52 77
e 52 78
e 52 79
e 52 84
e 52 103
e 52 114
e 52 118
e 52 122
e 52 135
e 52 136
e 52 141
e 52 142
e 52 175
e 52 176
e 52 177
e 52 198
e 52 203
e 53 54
e 53 55
e 53 62
e 53 68
e 53 80
e 53 81
e 53 82
e 53 83
e 53 110
e 53 115
e 53 121
e 53 127
e 53 143
e 53 144
e 53 151
e 53 174
e 53 178
e 53 229
e 54 55
e 54 63
e 54 69
e 54 80
e 54 81
e 54 82
e 54 102
e 54 111
e 54 115
e 54 117
e 54 128
e 54 134
e 54 143
e 54 144
e 54 152
e 54 178
e 54 229
e 55 64
e 55 70
e 55 80
e 55 81
e 55 82
e 55 84
e 55 103
e 55 115
e 55 118
e 55 122
e 55 135
e 55 136
e 55 143
e 55 144
e 55 175
e 55 178
e 55 198
e 55 229
e 56 57
e 56 73
e 56 83
e 56 84
e 56 85
e 56 91
e 56 116
e 56 123
e 56 145
e 56 146
e 56 167
e 56 179
e 56 180
e 56 204
e 56 205
e 56 206
e 56 239
e 56 249
e 57 83
e 57 84
e 57 86
e 57 92
e 57 106
e 57 116
e 57 124
e 57 139
e 57 145
e 57 146
e 57 179
e 57 180
e 57 204
e 57 205
e 57 206
e 57 240
e 57 249
e 58 59
e 58 88
e 58 89
e 58 90
e 58 94
e 58 115
e 58 119
e 58 120
e 58 129
e 58 145
e 58 171
e 58 182
e 58 183
e 58 187
e 58 196
e 58 212
e 58 228
e 59 88
e 59 89
e 59 90
e 59 109
e 59 114
e 59 119
e 59 120
e 59 130
e 59 146
e 59 172
e 59 181
e 59 182
e 59 184
e 59 188
e 59 197
e 59 213
e 60 61
e 60 71
e 60 77
e 60 80
e 60 94
e 60 96
e 60 104
e 60 126
e 60 132
e 60 147
e 60 153
e 60 154
e 60 155
e 60 156
e 60 157
e 60 162
e 60 164
e 60 186
e 60 214
e 61 72
e 61 79
e 61 82
e 61 94
e 61 98
e 61 116
e 61 126
e 61 133
e 61 149
e 61 153
e 61 154
e 61 155
e 61 156
e 61 166
e 61 185
e 61 186
e 61 214
e 61 224
e 62 63
e 62 64
e 62 68
e 62 83
e 62 96
e 62 97
e 62 98
e 62 110
e 62 121
e 62 127
e 62 129
e 62 130
e 62 151
e 62 174
e 62 189
e 62 190
e 62 236
e 62 237
e 63 64
e 63 69
e 63 96
e 63 97
e 63 98
e 63 102
e 63 111
e 63 117
e 63 128
e 63 129
e 63 130
e 63 134
e 63 152
e 63 189
e 63 190
e 63 236
e 63 237
e 64 70
e 64 84
e 64 96
e 64 97
e 64 98
e 64 103
e 64 118
e 64 122
e 64 129
e 64 130
e 64 135
e 64 136
e 64 175
e 64 189
e 64 190
e 64 198
e 64 236
e 64 237
e 65 66
e 65 75
e 65 88
e 65 99
e 65 100
e 65 101
e 65 131
e 65 141
e 65 143
e 65 159
e 65 160
e 65 179
e 65 199
e 65 209
e 65 221
e 65 232
e 65 254
e 66 76
e 66 90
e 66 99
e 66 100
e 66 101
e 66 126
e 66 131
e 66 138
e 66 144
e 66 159
e 66 192
e 66 201
e 66 208
e 66 211
e 66 222
e 66 265
e 67 74
e 67 87
e 67 93
e 67 95
e 67 102
e 67 103
e 67 107
e 67 108
e 67 125
e 67 132
e 67 133
e 67 140
e 67 168
e 67 191
e 67 192
e 67 216
e 67 217
e 67 218
e 67 219
e 67 238
e 67 241
e 67 251
e 68 69
e 68 70
e 68 83
e 68 104
e 68 105
e 68 110
e 68 121
e 68 127
e 68 151
e 68 160
e 68 161
e 68 174
e 68 193
e 68 194
e 68 195
e 68 220
e 69 70
e 69 102
e 69 104
e 69 105
e 69 111
e 69 117
e 69 128
e 69 134
e 69 152
e 69 160
e 69 161
e 69 193
e 69 194
e 69 195
e 69 220
e 70 84
e 70 103
e 70 104
e 70 105
e 70 118
e 70 122
e 70 135
e 70 136
e 70 160
e 70 161
e 70 175
e 70 193
e 70 194
e 70 195
e 70 198
e 70 220
e 71 72
e 71 77
e 71 80
e 71 96
e 71 104
e 71 109
e 71 132
e 71 137
e 71 138
e 71 147
e 71 157
e 71 162
e 71 164
e 71 169
e 71 170
e 71 225
e 71 226
e 72 79
e 72 82
e 72 98
e 72 109
e 72 116
e 72 133
e 72 137
e 72 138
e 72 149
e 72 166
e 72 169
e 72 170
e 72 185
e 72 224
e 72 225
e 72 226
e 73 74
e 73 85
e 73 91
e 73 110
e 73 111
e 73 123
e 73 167
e 73 171
e 73 172
e 73 199
e 73 200
e 73 201
e 73 227
e 73 239
e 73 255
e 73 256
e 74 87
e 74 93
e 74 95
e 74 107
e 74 108
e 74 110
e 74 111
e 74 125
e 74 140
e 74 168
e 74 171
e 74 172
e 74 199
e 74 200
e 74 201
e 74 227
e 74 241
e 74 255
e 74 256
e 75 76
e 75 88
e 75 112
e 75 113
e 75 141
e 75 143
e 75 160
e 75 173
e 75 179
e 75 199
e 75 209
e 75 221
e 75 232
e 75 254
e 76 90
e 76 112
e 76 113
e 76 126
e 76 138
e 76 144
e 76 173
e 76 192
e 76 201
e 76 208
e 76 211
e 76 222
e 76 265
e 77 78
e 77 79
e 77 80
e 77 96
e 77 104
e 77 114
e 77 132
e 77 141
e 77 142
e 77 147
e 77 157
e 77 162
e 77 164
e 77 176
e 77 177
e 77 203
e 78 79
e 78 81
e 78 97
e 78 105
e 78 114
e 78 141
e 78 142
e 78 148
e 78 150
e 78 158
e 78 163
e 78 165
e 78 176
e 78 177
e 78 202
e 78 203
e 78 223
e 79 82
e 79 98
e 79 114
e 79 116
e 79 133
e 79 141
e 79 142
e 79 149
e 79 166
e 79 176
e 79 177
e 79 185
e 79 203
e 79 224
e 80 81
e 80 82
e 80 96
e 80 104
e 80 115
e 80 132
e 80 143
e 80 144
e 80 147
e 80 157
e 80 162
e 80 164
e 80 178
e 80 229
e 81 82
e 81 97
e 81 105
e 81 115
e 81 143
e 81 144
e 81 148
e 81 150
e 81 158
e 81 163
e 81 165
e 81 178
e 81 202
e 81 223
e 81 229
e 82 98
e 82 115
e 82 116
e 82 133
e 82 143
e 82 144
e 82 149
e 82 166
e 82 178
e 82 185
e 82 224
e 82 229
e 83 84
e 83 110
e 83 116
e 83 121
e 83 127
e 83 145
e 83 146
e 83 151
e 83 174
e 83 179
e 83 180
e 83 204
e 83 205
e 83 206
e 83 249
e 84 103
e 84 116
e 84 118
e 84 122
e 84 135
e 84 136
e 84 145
e 84 146
e 84 175
e 84 179
e 84 180
e 84 198
e 84 204
e 84 205
e 84 206
e 84 249
e 85 86
e 85 87
e 85 91
e 85 117
e 85 118
e 85 123
e 85 147
e 85 148
e 85 149
e 85 167
e 85 181
e 85 207
e 85 208
e 85 230
e 85 239
e 86 87
e 86 92
e 86 106
e 86 117
e 86 118
e 86 124
e 86 139
e 86 147
e 86 148
e 86 149
e 86 181
e 86 207
e 86 208
e 86 230
e 86 240
e 87 93
e 87 95
e 87 107
e 87 108
e 87 117
e 87 118
e 87 125
e 87 140
e 87 147
e 87 148
e 87 149
e 87 168
e 87 181
e 87 207
e 87 208
e 87 230
e 87 241
e 88 89
e 88 90
e 88 119
e 88 120
e 88 141
e 88 143
e 88 160
e 88 179
e 88 182
e 88 199
e 88 209
e 88 221
e 88 232
e 88 254
e 89 90
e 89 119
e 89 120
e 89 137
e 89 142
e 89 161
e 89 180
e 89 182
e 89 191
e 89 200
e 89 207
e 89 210
e 89 215
e 89 233
e 89 248
e 90 119
e 90 120
e 90 126
e 90 138
e 90 144
e 90 182
e 90 192
e 90 201
e 90 208
e 90 211
e 90 222
e 90 265
e 91 92
e 91 93
e 91 121
e 91 122
e 91 123
e 91 150
e 91 167
e 91 183
e 91 184
e 91 209
e 91 210
e 91 211
e 91 231
e 91 239
e 92 93
e 92 106
e 92 121
e 92 122
e 92 124
e 92 139
e 92 150
e 92 183
e 92 184
e 92 209
e 92 210
e 92 211
e 92 231
e 92 240
e 93 95
e 93 107
e 93 108
e 93 121
e 93 122
e 93 125
e 93 140
e 93 150
e 93 168
e 93 183
e 93 184
e 93 209
e 93 210
e 93 211
e 93 231
e 93 241
e 94 115
e 94 126
e 94 129
e 94 145
e 94 153
e 94 154
e 94 155
e 94 156
e 94 171
e 94 183
e 94 186
e 94 187
e 94 196
e 94 212
e 94 214
e 94 228
e 95 107
e 95 108
e 95 125
e 95 127
e 95 128
e 95 140
e 95 157
e 95 158
e 95 168
e 95 187
e 95 188
e 95 215
e 95 234
e 95 235
e 95 241
e 95 250
e 95 260
e 96 97
e 96 98
e 96 104
e 96 129
e 96 130
e 96 132
e 96 147
e 96 157
e 96 162
e 96 164
e 96 189
e 96 190
e 96 236
e 96 237
e 97 98
e 97 105
e 97 129
e 97 130
e 97 148
e 97 150
e 97 158
e 97 163
e 97 165
e 97 189
e 97 190
e 97 202
e 97 223
e 97 236
e 97 237
e 98 116
e 98 129
e 98 130
e 98 133
e 98 149
e 98 166
e 98 185
e 98 189
e 98 190
e 98 224
e 98 236
e 98 237
e 99 100
e 99 101
e 99 112
e 99 119
e 99 131
e 99 153
e 99 159
e 99 193
e 99 216
e 99 234
e 99 242
e 99 246
e 99 257
e 99 262
e 100 101
e 100 113
e 100 131
e 100 154
e 100 159
e 100 169
e 100 178
e 100 194
e 100 204
e 100 217
e 100 243
e 100 247
e 100 267
e 101 131
e 101 155
e 101 159
e 101 170
e 101 176
e 101 189
e 101 195
e 101 205
e 101 218
e 101 227
e 101 231
e 101 244
e 102 103
e 102 111
e 102 117
e 102 128
e 102 132
e 102 133
e 102 134
e 102 152
e 102 191
e 102 192
e 102 216
e 102 217
e 102 218
e 102 219
e 102 238
e 102 251
e 103 118
e 103 122
e 103 132
e 103 133
e 103 135
e 103 136
e 103 175
e 103 191
e 103 192
e 103 198
e 103 216
e 103 217
e 103 218
e 103 219
e 103 238
e 103 251
e 104 105
e 104 132
e 104 147
e 104 157
e 104 160
e 104 161
e 104 162
e 104 164
e 104 193
e 104 194
e 104 195
e 104 220
e 105 148
e 105 150
e 105 158
e 105 160
e 105 161
e 105 163
e 105 165
e 105 193
e 105 194
e 105 195
e 105 202
e 105 220
e 105 223
e 106 107
e 106 124
e 106 134
e 106 135
e 106 139
e 106 162
e 106 163
e 106 240
e 106 242
e 106 243
e 106 244
e 106 245
e 106 252
e 106 261
e 107 108
e 107 125
e 107 134
e 107 135
e 107 140
e 107 162
e 107 163
e 107 168
e 107 241
e 107 242
e 107 243
e 107 244
e 107 245
e 107 252
e 107 261
e 108 125
e 108 136
e 108 140
e 108 164
e 108 165
e 108 166
e 108 168
e 108 196
e 108 197
e 108 221
e 108 222
e 108 241
e 108 246
e 108 247
e 108 253
e 109 114
e 109 130
e 109 137
e 109 138
e 109 146
e 109 169
e 109 170
e 109 172
e 109 181
e 109 184
e 109 188
e 109 197
e 109 213
e 109 225
e 109 226
e 110 111
e 110 121
e 110 127
e 110 151
e 110 171
e 110 172
e 110 174
e 110 199
e 110 200
e 110 201
e 110 227
e 110 255
e 110 256
e 111 117
e 111 128
e 111 134
e 111 152
e 111 171
e 111 172
e 111 199
e 111 200
e 111 201
e 111 227
e 111 255
e 111 256
e 112 113
e 112 119
e 112 153
e 112 173
e 112 193
e 112 216
e 112 234
e 112 242
e 112 246
e 112 257
e 112 262
e 113 154
e 113 169
e 113 173
e 113 178
e 113 194
e 113 204
e 113 217
e 113 243
e 113 247
e 113 267
e 114 130
e 114 141
e 114 142
e 114 146
e 114 172
e 114 176
e 114 177
e 114 181
e 114 184
e 114 188
e 114 197
e 114 203
e 114 213
e 115 129
e 115 143
e 115 144
e 115 145
e 115 171
e 115 178
e 115 183
e 115 187
e 115 196
e 115 212
e 115 228
e 115 229
e 116 133
e 116 145
e 116 146
e 116 149
e 116 166
e 116 179
e 116 180
e 116 185
e 116 204
e 116 205
e 116 206
e 116 224
e 116 249
e 117 118
e 117 128
e 117 134
e 117 147
e 117 148
e 117 149
e 117 152
e 117 181
e 117 207
e 117 208
e 117 230
e 118 122
e 118 135
e 118 136
e 118 147
e 118 148
e 118 149
e 118 175
e 118 181
e 118 198
e 118 207
e 118 208
e 118 230
e 119 120
e 119 153
e 119 182
e 119 193
e 119 216
e 119 234
e 119 242
e 119 246
e 119 257
e 119 262
e 120 156
e 120 177
e 120 182
e 120 190
e 120 206
e 120 219
e 120 230
e 120 235
e 120 245
e 120 258
e 120 263
e 121 122
e 121 127
e 121 150
e 121 151
e 121 174
e 121 183
e 121 184
e 121 209
e 121 210
e 121 211
e 121 231
e 122 135
e 122 136
e 122 150
e 122 175
e 122 183
e 122 184
e 122 198
e 122 209
e 122 210
e 122 211
e 122 231
e 123 124
e 123 125
e 123 151
e 123 152
e 123 167
e 123 185
e 123 212
e 123 213
e 123 232
e 123 233
e 123 239
e 123 259
e 124 125
e 124 139
e 124 151
e 124 152
e 124 185
e 124 212
e 124 213
e 124 232
e 124 233
e 124 240
e 124 259
e 125 140
e 125 151
e 125 152
e 125 168
e 125 185
e 125 212
e 125 213
e 125 232
e 125 233
e 125 241
e 125 259
e 126 138
e 126 144
e 126 153
e 126 154
e 126 155
e 126 156
e 126 186
e 126 192
e 126 201
e 126 208
e 126 211
e 126 214
e 126 222
e 126 265
e 127 128
e 127 151
e 127 157
e 127 158
e 127 174
e 127 187
e 127 188
e 127 215
e 127 234
e 127 235
e 127 250
e 127 260
e 128 134
e 128 152
e 128 157
e 128 158
e 128 187
e 128 188
e 128 215
e 128 234
e 128 235
e 128 250
e 128 260
e 129 130
e 129 145
e 129 171
e 129 183
e 129 187
e 129 189
e 129 190
e 129 196
e 129 212
e 129 228
e 129 236
e 129 237
e 130 146
e 130 172
e 130 181
e 130 184
e 130 188
e 130 189
e 130 190
e 130 197
e 130 213
e 130 236
e 130 237
e 131 159
e 131 186
e 131 203
e 131 220
e 131 238
e 131 250
e 131 252
e 131 253
e 131 259
e 131 268
e 132 133
e 132 147
e 132 157
e 132 162
e 132 164
e 132 191
e 132 192
e 132 216
e 132 217
e 132 218
e 132 219
e 132 238
e 132 251
e 133 149
e 133 166
e 133 185
e 133 191
e 133 192
e 133 216
e 133 217
e 133 218
e 133 219
e 133 224
e 133 238
e 133 251
e 134 135
e 134 152
e 134 162
e 134 163
e 134 242
e 134 243
e 134 244
e 134 245
e 134 252
e 134 261
e 135 136
e 135 162
e 135 163
e 135 175
e 135 198
e 135 242
e 135 243
e 135 244
e 135 245
e 135 252
e 135 261
e 136 164
e 136 165
e 136 166
e 136 175
e 136 196
e 136 197
e 136 198
e 136 221
e 136 222
e 136 246
e 136 247
e 136 253
e 137 138
e 137 142
e 137 161
e 137 169
e 137 170
e 137 180
e 137 191
e 137 200
e 137 207
e 137 210
e 137 215
e 137 225
e 137 226
e 137 233
e 137 248
e 138 144
e 138 169
e 138 170
e 138 192
e 138 201
e 138 208
e 138 211
e 138 222
e 138 225
e 138 226
e 138 265
e 139 140
e 139 174
e 139 175
e 139 202
e 139 228
e 139 240
e 139 248
e 139 257
e 139 258
e 139 264
e 140 168
e 140 174
e 140 175
e 140 202
e 140 228
e 140 241
e 140 248
e 140 257
e 140 258
e 140 264
e 141 142
e 141 143
e 141 160
e 141 176
e 141 177
e 141 179
e 141 199
e 141 203
e 141 209
e 141 221
e 141 232
e 141 254
e 142 161
e 142 176
e 142 177
e 142 180
e 142 191
e 142 200
e 142 203
e 142 207
e 142 210
e 142 215
e 142 233
e 142 248
e 143 144
e 143 160
e 143 178
e 143 179
e 143 199
e 143 209
e 143 221
e 143 229
e 143 232
e 143 254
e 144 178
e 144 192
e 144 201
e 144 208
e 144 211
e 144 222
e 144 229
e 144 265
e 145 146
e 145 171
e 145 179
e 145 180
e 145 183
e 145 187
e 145 196
e 145 204
e 145 205
e 145 206
e 145 212
e 145 228
e 145 249
e 146 172
e 146 179
e 146 180
e 146 181
e 146 184
e 146 188
e 146 197
e 146 204
e 146 205
e 146 206
e 146 213
e 146 249
e 147 148
e 147 149
e 147 157
e 147 162
e 147 164
e 147 181
e 147 207
e 147 208
e 147 230
e 148 149
e 148 150
e 148 158
e 148 163
e 148 165
e 148 181
e 148 202
e 148 207
e 148 208
e 148 223
e 148 230
e 149 166
e 149 181
e 149 185
e 149 207
e 149 208
e 149 224
e 149 230
e 150 158
e 150 163
e 150 165
e 150 183
e 150 184
e 150 202
e 150 209
e 150 210
e 150 211
e 150 223
e 150 231
e 151 152
e 151 174
e 151 185
e 151 212
e 151 213
e 151 232
e 151 233
e 151 259
e 152 185
e 152 212
e 152 213
e 152 232
e 152 233
e 152 259
e 153 154
e 153 155
e 153 156
e 153 186
e 153 193
e 153 214
e 153 216
e 153 234
e 153 242
e 153 246
e 153 257
e 153 262
e 154 155
e 154 156
e 154 169
e 154 178
e 154 186
e 154 194
e 154 204
e 154 214
e 154 217
e 154 243
e 154 247
e 154 267
e 155 156
e 155 170
e 155 176
e 155 186
e 155 189
e 155 195
e 155 205
e 155 214
e 155 218
e 155 227
e 155 231
e 155 244
e 156 177
e 156 186
e 156 190
e 156 206
e 156 214
e 156 219
e 156 230
e 156 235
e 156 245
e 156 258
e 156 263
e 157 158
e 157 162
e 157 164
e 157 187
e 157 188
e 157 215
e 157 234
e 157 235
e 157 250
e 157 260
e 158 163
e 158 165
e 158 187
e 158 188
e 158 202
e 158 215
e 158 223
e 158 234
e 158 235
e 158 250
e 158 260
e 159 173
e 159 226
e 159 237
e 159 251
e 159 256
e 159 261
e 159 264
e 159 269
e 160 161
e 160 179
e 160 193
e 160 194
e 160 195
e 160 199
e 160 209
e 160 220
e 160 221
e 160 232
e 160 254
e 161 180
e 161 191
e 161 193
e 161 194
e 161 195
e 161 200
e 161 207
e 161 210
e 161 215
e 161 220
e 161 233
e 161 248
e 162 163
e 162 164
e 162 242
e 162 243
e 162 244
e 162 245
e 162 252
e 162 261
e 163 165
e 163 202
e 163 223
e 163 242
e 163 243
e 163 244
e 163 245
e 163 252
e 163 261
e 164 165
e 164 166
e 164 196
e 164 197
e 164 221
e 164 222
e 164 246
e 164 247
e 164 253
e 165 166
e 165 196
e 165 197
e 165 202
e 165 221
e 165 222
e 165 223
e 165 246
e 165 247
e 165 253
e 166 185
e 166 196
e 166 197
e 166 221
e 166 222
e 166 224
e 166 246
e 166 247
e 166 253
e 167 168
e 167 198
e 167 223
e 167 224
e 167 239
e 167 254
e 167 262
e 167 263
e 167 266
e 168 198
e 168 223
e 168 224
e 168 241
e 168 254
e 168 262
e 168 263
e 168 266
e 169 170
e 169 178
e 169 194
e 169 204
e 169 217
e 169 225
e 169 226
e 169 243
e 169 247
e 169 267
e 170 176
e 170 189
e 170 195
e 170 205
e 170 218
e 170 225
e 170 226
e 170 227
e 170 231
e 170 244
e 171 172
e 171 183
e 171 187
e 171 196
e 171 199
e 171 200
e 171 201
e 171 212
e 171 227
e 171 228
e 171 255
e 171 256
e 172 181
e 172 184
e 172 188
e 172 197
e 172 199
e 172 200
e 172 201
e 172 213
e 172 227
e 172 255
e 172 256
e 173 226
e 173 237
e 173 251
e 173 256
e 173 261
e 173 264
e 173 269
e 174 175
e 174 202
e 174 228
e 174 248
e 174 257
e 174 258
e 174 264
e 175 198
e 175 202
e 175 228
e 175 248
e 175 257
e 175 258
e 175 264
e 176 177
e 176 189
e 176 195
e 176 203
e 176 205
e 176 218
e 176 227
e 176 231
e 176 244
e 177 190
e 177 203
e 177 206
e 177 219
e 177 230
e 177 235
e 177 245
e 177 258
e 177 263
e 178 194
e 178 204
e 178 217
e 178 229
e 178 243
e 178 247
e 178 267
e 179 180
e 179 199
e 179 204
e 179 205
e 179 206
e 179 209
e 179 221
e 179 232
e 179 249
e 179 254
e 180 191
e 180 200
e 180 204
e 180 205
e 180 206
e 180 207
e 180 210
e 180 215
e 180 233
e 180 248
e 180 249
e 181 184
e 181 188
e 181 197
e 181 207
e 181 208
e 181 213
e 181 230
e 182 214
e 182 225
e 182 229
e 182 236
e 182 249
e 182 255
e 182 260
e 182 266
e 183 184
e 183 187
e 183 196
e 183 209
e 183 210
e 183 211
e 183 212
e 183 228
e 183 231
e 184 188
e 184 197
e 184 209
e 184 210
e 184 211
e 184 213
e 184 231
e 185 212
e 185 213
e 185 224
e 185 232
e 185 233
e 185 259
e 186 203
e 186 214
e 186 220
e 186 238
e 186 250
e 186 252
e 186 253
e 186 259
e 186 268
e 187 188
e 187 196
e 187 212
e 187 215
e 187 228
e 187 234
e 187 235
e 187 250
e 187 260
e 188 197
e 188 213
e 188 215
e 188 234
e 188 235
e 188 250
e 188 260
e 189 190
e 189 195
e 189 205
e 189 218
e 189 227
e 189 231
e 189 236
e 189 237
e 189 244
e 190 206
e 190 219
e 190 230
e 190 235
e 190 236
e 190 237
e 190 245
e 190 258
e 190 263
e 191 192
e 191 200
e 191 207
e 191 210
e 191 215
e 191 216
e 191 217
e 191 218
e 191 219
e 191 233
e 191 238
e 191 248
e 191 251
e 192 201
e 192 208
e 192 211
e 192 216
e 192 217
e 192 218
e 192 219
e 192 222
e 192 238
e 192 251
e 192 265
e 193 194
e 193 195
e 193 216
e 193 220
e 193 234
e 193 242
e 193 246
e 193 257
e 193 262
e 194 195
e 194 204
e 194 217
e 194 220
e 194 243
e 194 247
e 194 267
e 195 205
e 195 218
e 195 220
e 195 227
e 195 231
e 195 244
e 196 197
e 196 212
e 196 221
e 196 222
e 196 228
e 196 246
e 196 247
e 196 253
e 197 213
e 197 221
e 197 222
e 197 246
e 197 247
e 197 253
e 198 223
e 198 224
e 198 254
e 198 262
e 198 263
e 198 266
e 199 200
e 199 201
e 199 209
e 199 221
e 199 227
e 199 232
e 199 254
e 199 255
e 199 256
e 200 201
e 200 207
e 200 210
e 200 215
e 200 227
e 200 233
e 200 248
e 200 255
e 200 256
e 201 208
e 201 211
e 201 222
e 201 227
e 201 255
e 201 256
e 201 265
e 202 223
e 202 228
e 202 248
e 202 257
e 202 258
e 202 264
e 203 220
e 203 238
e 203 250
e 203 252
e 203 253
e 203 259
e 203 268
e 204 205
e 204 206
e 204 217
e 204 243
e 204 247
e 204 249
e 204 267
e 205 206
e 205 218
e 205 227
e 205 231
e 205 244
e 205 249
e 206 219
e 206 230
e 206 235
e 206 245
e 206 249
e 206 258
e 206 263
e 207 208
e 207 210
e 207 215
e 207 230
e 207 233
e 207 248
e 208 211
e 208 222
e 208 230
e 208 265
e 209 210
e 209 211
e 209 221
e 209 231
e 209 232
e 209 254
e 210 211
e 210 215
e 210 231
e 210 233
e 210 248
e 211 222
e 211 231
e 211 265
e 212 213
e 212 228
e 212 232
e 212 233
e 212 259
e 213 232
e 213 233
e 213 259
e 214 225
e 214 229
e 214 236
e 214 249
e 214 255
e 214 260
e 214 266
e 215 233
e 215 234
e 215 235
e 215 248
e 215 250
e 215 260
e 216 217
e 216 218
e 216 219
e 216 234
e 216 238
e 216 242
e 216 246
e 216 251
e 216 257
e 216 262
e 217 218
e 217 219
e 217 238
e 217 243
e 217 247
e 217 251
e 217 267
e 218 219
e 218 227
e 218 231
e 218 238
e 218 244
e 218 251
e 219 230
e 219 235
e 219 238
e 219 245
e 219 251
e 219 258
e 219 263
e 220 238
e 220 250
e 220 252
e 220 253
e 220 259
e 220 268
e 221 222
e 221 232
e 221 246
e 221 247
e 221 253
e 221 254
e 222 246
e 222 247
e 222 253
e 222 265
e 223 224
e 223 254
e 223 262
e 223 263
e 223 266
e 224 254
e 224 262
e 224 263
e 224 266
e 225 226
e 225 229
e 225 236
e 225 249
e 225 255
e 225 260
e 225 266
e 226 237
e 226 251
e 226 256
e 226 261
e 226 264
e 226 269
e 227 231
e 227 244
e 227 255
e 227 256
e 228 248
e 228 257
e 228 258
e 228 264
e 229 236
e 229 249
e 229 255
e 229 260
e 229 266
e 230 235
e 230 245
e 230 258
e 230 263
e 231 244
e 232 233
e 232 254
e 232 259
e 233 248
e 233 259
e 234 235
e 234 242
e 234 246
e 234 250
e 234 257
e 234 260
e 234 262
e 235 245
e 235 250
e 235 258
e 235 260
e 235 263
e 236 237
e 236 249
e 236 255
e 236 260
e 236 266
e 237 251
e 237 256
e 237 261
e 237 264
e 237 269
e 238 250
e 238 251
e 238 252
e 238 253
e 238 259
e 238 268
e 239 240
e 239 241
e 239 265
e 239 267
e 239 268
e 239 269
e 240 241
e 240 265
e 240 267
e 240 268
e 240 269
e 241 265
e 241 267
e 241 268
e 241 269
e 242 243
e 242 244
e 242 245
e 242 246
e 242 252
e 242 257
e 242 261
e 242 262
e 243 244
e 243 245
e 243 247
e 243 252
e 243 261
e 243 267
e 244 245
e 244 252
e 244 261
e 245 252
e 245 258
e 245 261
e 245 263
e 246 247
e 246 253
e 246 257
e 246 262
e 247 253
e 247 267
e 248 257
e 248 258
e 248 264
e 249 255
e 249 260
e 249 266
e 250 252
e 250 253
e 250 259
e 250 260
e 250 268
e 251 256
e 251 261
e 251 264
e 251 269
e 252 253
e 252 259
e 252 261
e 252 268
e 253 259
e 253 268
e 254 262
e 254 263
e 254 266
e 255 256
e 255 260
e 255 266
e 256 261
e 256 264
e 256 269
e 257 258
e 257 262
e 257 264
e 258 263
e 258 264
e 259 268
e 260 266
e 261 264
e 261 269
e 262 263
e 262 266
e 263 266
e 264 269
e 265 267
e 265 268
e 265 269
e 267 268
e 267 269
e 268 269
